p cnf 75 675
1 -75 -56 0
1 -75 -52 0
1 -75 -28 0
1 -75 -16 0
1 -75 -7 0
1 -75 18 0
1 -75 46 0
1 -75 51 0
1 -75 69 0
1 -74 -71 0
1 -74 -49 0
1 -74 -47 0
1 -74 -35 0
1 -74 -16 0
1 -74 -9 0
1 -74 -6 0
1 -74 37 0
1 -74 70 0
1 -73 -69 0
1 -73 -59 0
1 -73 -53 0
1 -73 2 0
1 -73 9 0
1 -73 21 0
1 -73 48 0
1 -73 52 0
1 -73 68 0
1 -72 -56 0
1 -72 -38 0
1 -72 -35 0
1 -72 -22 0
1 -72 -20 0
1 -72 2 0
1 -72 52 0
1 -72 53 0
1 -72 69 0
1 -71 -63 0
1 -71 -20 0
1 -71 -18 0
1 -71 -11 0
1 -71 -10 0
1 -71 6 0
1 -71 22 0
1 -71 49 0
1 -70 -57 0
1 -70 -54 0
1 -70 -39 0
1 -70 -30 0
1 -70 -23 0
1 -70 -10 0
1 -70 47 0
1 -70 62 0
1 -70 66 0
1 -69 -25 0
1 -69 -19 0
1 -69 7 0
1 -69 11 0
1 -69 17 0
1 -69 42 0
1 -69 49 0
1 -69 60 0
1 -68 -57 0
1 -68 -52 0
1 -68 -48 0
1 -68 -24 0
1 -68 -22 0
1 -68 -15 0
1 -68 -8 0
1 -68 38 0
1 -68 71 0
1 -67 -17 0
1 -67 -14 0
1 -67 -8 0
1 -67 2 0
1 -67 26 0
1 -67 37 0
1 -67 41 0
1 -67 43 0
1 -67 70 0
1 -66 -39 0
1 -66 -38 0
1 -66 -26 0
1 -66 -24 0
1 -66 -17 0
1 -66 -10 0
1 -66 1 0
1 -66 33 0
1 -66 57 0
1 -65 -52 0
1 -65 -43 0
1 -65 -22 0
1 -65 -18 0
1 -65 -17 0
1 -65 1 0
1 -65 12 0
1 -65 59 0
1 -65 63 0
1 -64 -55 0
1 -64 -33 0
1 -64 -28 0
1 -64 -13 0
1 -64 -6 0
1 -64 -2 0
1 -64 49 0
1 -64 55 0
1 -64 60 0
1 -63 -62 0
1 -63 -53 0
1 -63 -34 0
1 -63 3 0
1 -63 8 0
1 -63 24 0
1 -63 48 0
1 -63 67 0
1 -62 -50 0
1 -62 -2 0
1 -62 9 0
1 -62 11 0
1 -62 12 0
1 -62 30 0
1 -62 32 0
1 -62 66 0
1 -61 -45 0
1 -61 -43 0
1 -61 -39 0
1 -61 -37 0
1 -61 -11 0
1 -61 7 0
1 -61 26 0
1 -61 47 0
1 -61 68 0
1 -60 -43 0
1 -60 -40 0
1 -60 -31 0
1 -60 28 0
1 -60 29 0
1 -60 37 0
1 -60 38 0
1 -60 44 0
1 -60 70 0
1 -59 -55 0
1 -59 -31 0
1 -59 -16 0
1 -59 1 0
1 -59 14 0
1 -59 40 0
1 -59 46 0
1 -59 52 0
1 -58 -27 0
1 -58 -26 0
1 -58 -18 0
1 -58 -1 0
1 -58 5 0
1 -58 27 0
1 -58 28 0
1 -58 47 0
1 -58 50 0
1 -57 -32 0
1 -57 -30 0
1 -57 -22 0
1 -57 24 0
1 -57 28 0
1 -57 48 0
1 -57 64 0
1 -56 8 0
1 -56 13 0
1 -56 16 0
1 -56 31 0
1 -56 33 0
1 -56 47 0
1 -56 57 0
1 -55 -48 0
1 -55 -27 0
1 -55 15 0
1 -55 42 0
1 -55 48 0
1 -55 50 0
1 -55 51 0
1 -54 -51 0
1 -54 -37 0
1 -54 -31 0
1 -54 -23 0
1 -54 -9 0
1 -54 5 0
1 -54 59 0
1 -54 67 0
1 -53 -50 0
1 -53 -48 0
1 -53 -20 0
1 -53 23 0
1 -53 51 0
1 -53 52 0
1 -53 69 0
1 -52 -47 0
1 -52 -33 0
1 -52 -2 0
1 -52 8 0
1 -52 23 0
1 -52 75 0
1 -51 -44 0
1 -51 -39 0
1 -51 -36 0
1 -51 -24 0
1 -51 -13 0
1 -51 18 0
1 -51 50 0
1 -51 74 0
1 -50 -43 0
1 -50 -35 0
1 -50 -32 0
1 -50 -12 0
1 -50 -3 0
1 -50 10 0
1 -50 41 0
1 -49 -46 0
1 -49 -20 0
1 -49 -18 0
1 -49 -14 0
1 -49 6 0
1 -49 12 0
1 -49 31 0
1 -49 63 0
1 -48 -44 0
1 -48 -32 0
1 -48 1 0
1 -48 7 0
1 -48 41 0
1 -48 66 0
1 -47 -35 0
1 -47 -34 0
1 -47 -16 0
1 -47 -7 0
1 -47 6 0
1 -47 31 0
1 -47 39 0
1 -46 -36 0
1 -46 -33 0
1 -46 -28 0
1 -46 5 0
1 -46 29 0
1 -46 36 0
1 -46 52 0
1 -46 67 0
1 -45 -34 0
1 -45 -20 0
1 -45 -12 0
1 -45 6 0
1 -45 25 0
1 -45 35 0
1 -45 38 0
1 -45 46 0
1 -44 3 0
1 -44 10 0
1 -44 18 0
1 -44 21 0
1 -44 27 0
1 -44 32 0
1 -44 73 0
1 -43 -40 0
1 -43 -13 0
1 -43 29 0
1 -43 51 0
1 -43 68 0
1 -42 -32 0
1 -42 -18 0
1 -42 -10 0
1 -42 -1 0
1 -42 24 0
1 -42 50 0
1 -42 60 0
1 -42 61 0
1 -42 64 0
1 -41 -34 0
1 -41 -26 0
1 -41 -6 0
1 -41 -4 0
1 -41 11 0
1 -41 12 0
1 -41 33 0
1 -41 39 0
1 -41 68 0
1 -40 -31 0
1 -40 -28 0
1 -40 -19 0
1 -40 12 0
1 -40 58 0
1 -40 59 0
1 -40 75 0
1 -39 -8 0
1 -39 -3 0
1 -39 15 0
1 -39 40 0
1 -39 55 0
1 -38 -23 0
1 -38 -21 0
1 -38 22 0
1 -38 42 0
1 -38 43 0
1 -38 67 0
1 -38 71 0
1 -37 -28 0
1 -37 -5 0
1 -37 7 0
1 -37 13 0
1 -37 19 0
1 -37 69 0
1 -37 71 0
1 -36 -34 0
1 -36 -29 0
1 -36 -15 0
1 -36 3 0
1 -36 7 0
1 -36 51 0
1 -36 73 0
1 -35 -14 0
1 -35 30 0
1 -35 62 0
1 -35 63 0
1 -35 70 0
1 -34 -19 0
1 -34 -14 0
1 -34 48 0
1 -34 51 0
1 -33 -31 0
1 -33 2 0
1 -33 6 0
1 -33 26 0
1 -33 36 0
1 -33 65 0
1 -32 -8 0
1 -32 -5 0
1 -32 21 0
1 -32 43 0
1 -32 58 0
1 -31 -6 0
1 -31 1 0
1 -31 6 0
1 -31 55 0
1 -30 -23 0
1 -30 -19 0
1 -30 -11 0
1 -30 -9 0
1 -30 9 0
1 -30 20 0
1 -30 56 0
1 -29 -12 0
1 -29 -4 0
1 -29 -1 0
1 -29 3 0
1 -29 7 0
1 -29 53 0
1 -29 68 0
1 -29 69 0
1 -28 -21 0
1 -28 6 0
1 -28 55 0
1 -28 66 0
1 -27 5 0
1 -27 18 0
1 -27 39 0
1 -27 45 0
1 -27 58 0
1 -27 73 0
1 -27 75 0
1 -26 5 0
1 -26 18 0
1 -26 21 0
1 -26 38 0
1 -26 63 0
1 -26 66 0
1 -25 -19 0
1 -25 -15 0
1 -25 9 0
1 -25 17 0
1 -25 22 0
1 -25 27 0
1 -25 50 0
1 -25 61 0
1 -24 -23 0
1 -24 19 0
1 -24 52 0
1 -24 58 0
1 -24 65 0
1 -24 66 0
1 -23 -7 0
1 -23 17 0
1 -23 38 0
1 -23 51 0
1 -22 -18 0
1 -22 -1 0
1 -22 2 0
1 -22 14 0
1 -22 62 0
1 -21 -7 0
1 -21 4 0
1 -21 8 0
1 -21 45 0
1 -21 59 0
1 -21 71 0
1 -21 75 0
1 -20 12 0
1 -20 39 0
1 -20 55 0
1 -20 60 0
1 -19 20 0
1 -19 31 0
1 -19 56 0
1 -19 61 0
1 -18 -6 0
1 -18 34 0
1 -18 45 0
1 -17 28 0
1 -17 46 0
1 -17 51 0
1 -17 53 0
1 -17 61 0
1 -17 73 0
1 -16 -3 0
1 -16 11 0
1 -16 50 0
1 -16 63 0
1 -16 75 0
1 -15 -12 0
1 -15 -8 0
1 -15 30 0
1 -15 41 0
1 -15 48 0
1 -15 57 0
1 -14 -11 0
1 -14 43 0
1 -14 45 0
1 -14 63 0
1 -14 72 0
1 -13 5 0
1 -13 21 0
1 -13 22 0
1 -13 48 0
1 -13 67 0
1 -13 73 0
1 -12 4 0
1 -12 19 0
1 -12 22 0
1 -12 25 0
1 -12 65 0
1 -11 4 0
1 -11 64 0
1 -11 65 0
1 -11 70 0
1 -11 75 0
1 -10 5 0
1 -10 13 0
1 -10 26 0
1 -10 35 0
1 -10 42 0
1 -9 14 0
1 -9 21 0
1 -9 22 0
1 -9 36 0
1 -9 45 0
1 -9 60 0
1 -8 6 0
1 -8 13 0
1 -8 48 0
1 -8 68 0
1 -7 -4 0
1 -7 28 0
1 -7 34 0
1 -7 50 0
1 -7 54 0
1 -6 13 0
1 -6 19 0
1 -6 30 0
1 -6 64 0
1 -5 -2 0
1 -5 16 0
1 -5 44 0
1 -5 54 0
1 -5 59 0
1 -5 66 0
1 -5 71 0
1 -4 9 0
1 -4 30 0
1 -4 34 0
1 -4 35 0
1 -4 40 0
1 -4 72 0
1 -3 11 0
1 -3 39 0
1 -3 59 0
1 -3 63 0
1 -3 70 0
1 -3 73 0
1 -2 15 0
1 -2 38 0
1 -2 42 0
1 -2 71 0
1 -2 75 0
1 -1 12 0
1 -1 23 0
1 -1 47 0
1 -1 60 0
1 -1 72 0
1 1 9 0
1 1 53 0
1 1 67 0
1 1 75 0
1 2 21 0
1 2 23 0
1 2 39 0
1 2 64 0
1 3 7 0
1 3 20 0
1 3 23 0
1 3 35 0
1 3 65 0
1 4 24 0
1 4 26 0
1 4 27 0
1 4 49 0
1 4 57 0
1 4 60 0
1 5 19 0
1 5 46 0
1 6 20 0
1 7 41 0
1 7 59 0
1 8 36 0
1 8 41 0
1 8 47 0
1 8 59 0
1 8 60 0
1 9 17 0
1 9 18 0
1 9 30 0
1 10 15 0
1 10 19 0
1 10 22 0
1 10 23 0
1 10 42 0
1 10 66 0
1 10 68 0
1 11 25 0
1 11 44 0
1 11 56 0
1 11 71 0
1 12 17 0
1 12 27 0
1 13 26 0
1 13 36 0
1 13 56 0
1 13 64 0
1 14 21 0
1 14 35 0
1 14 40 0
1 14 45 0
1 14 58 0
1 14 74 0
1 15 28 0
1 15 31 0
1 15 37 0
1 15 39 0
1 15 44 0
1 16 19 0
1 16 29 0
1 16 40 0
1 16 44 0
1 16 46 0
1 16 48 0
1 16 57 0
1 17 29 0
1 17 30 0
1 17 68 0
1 17 72 0
1 18 19 0
1 18 62 0
1 18 69 0
1 19 62 0
1 20 46 0
1 20 52 0
1 20 54 0
1 20 64 0
1 20 73 0
1 21 36 0
1 22 37 0
1 22 47 0
1 23 38 0
1 23 52 0
1 23 70 0
1 24 27 0
1 24 32 0
1 24 34 0
1 24 35 0
1 24 67 0
1 25 34 0
1 25 57 0
1 25 64 0
1 25 72 0
1 25 73 0
1 25 74 0
1 26 29 0
1 26 59 0
1 26 75 0
1 27 53 0
1 27 71 0
1 27 73 0
1 28 40 0
1 28 49 0
1 28 71 0
1 29 37 0
1 29 52 0
1 29 74 0
1 30 58 0
1 30 69 0
1 31 35 0
1 31 47 0
1 31 57 0
1 31 67 0
1 32 50 0
1 32 54 0
1 32 58 0
1 32 61 0
1 32 65 0
1 32 68 0
1 33 36 0
1 33 40 0
1 33 53 0
1 33 61 0
1 33 63 0
1 33 65 0
1 34 35 0
1 34 40 0
1 34 41 0
1 34 72 0
1 35 55 0
1 36 39 0
1 36 40 0
1 37 38 0
1 37 41 0
1 37 60 0
1 38 72 0
1 39 62 0
1 41 58 0
1 42 44 0
1 42 49 0
1 42 55 0
1 43 44 0
1 43 49 0
1 43 61 0
1 43 70 0
1 43 74 0
1 44 61 0
1 44 72 0
1 45 56 0
1 45 57 0
1 45 64 0
1 46 56 0
1 46 69 0
1 47 55 0
1 49 55 0
1 49 56 0
1 50 65 0
1 51 56 0
1 53 62 0
1 53 63 0
1 53 74 0
1 54 58 0
1 54 62 0
1 54 65 0
1 54 72 0
1 54 74 0
1 56 69 0
1 57 61 0
1 62 66 0
1 67 74 0
1 70 74 0
